(declare-const c_0 Real)
(declare-const c_1 Real)
(declare-const c_2 Real)
(declare-const c_3 Real)
(declare-const c_4 Real)
(declare-const c_5 Real)
(declare-const c_6 Real)
(declare-const c_7 Real)
(declare-const c_8 Real)
(declare-const s_0 Real)
(declare-const s_1 Real)
(declare-const s_2 Real)
(declare-const s_3 Real)
(declare-const s_4 Real)
(declare-const s_5 Real)
(declare-const s_6 Real)
(declare-const s_7 Real)
(declare-const s_8 Real)
(assert (forall ((x Real) (M Real) ) (=> (and (>= (+ (* 1024 1) (* 1 x ) ) 0) (>= (+ (* 1023 1) (* (- 1) x ) ) 0) (>= (+ (* 1024 1) (* 1 M ) ) 0) (>= (+ (* 1023 1) (* (- 1) M ) ) 0) ) (>= (+ (* 1 M s_1 ) (* 1 s_0 ) (* 1 s_2 x ) ) 0) )))
(assert (forall ((x Real) (M Real) ) (=> (and (>= (+ (* 1024 1) (* 1 x ) ) 0) (>= (+ (* 1023 1) (* (- 1) x ) ) 0) (>= (+ (* 1024 1) (* 1 M ) ) 0) (>= (+ (* 1023 1) (* (- 1) M ) ) 0) ) (>= (+ (* 1 M c_1 ) (* 1 c_0 ) (* 1 c_2 x ) ) 0) )))
(assert (forall ((x Real) (M Real) ) (=> (and (>= (+ (* (- 1) 1) (* 1 M ) ) 0) (>= (+ (* 1024 1) (* 1 x ) ) 0) (>= (+ (* 1024 1) (* 1 M ) ) 0) (>= (+ (* 1023 1) (* (- 1) M ) ) 0) (>= (+ (* 1023 1) (* (- 1) x ) ) 0) (>= (+ (* 1 M s_1 ) (* 1 s_0 ) (* 1 s_2 x ) ) 0) ) (>= (+ (* 1 M s_4 ) (* 1 s_3 ) (* 1 s_5 x ) ) 0) )))
(assert (forall ((x Real) (M Real) ) (=> (and (>= (+ (* (- 1) 1) (* 1 M ) ) 0) (>= (+ (* 1024 1) (* 1 x ) ) 0) (>= (+ (* 1024 1) (* 1 M ) ) 0) (>= (+ (* 1023 1) (* (- 1) M ) ) 0) (>= (+ (* 1023 1) (* (- 1) x ) ) 0) (>= (+ (* 1 M s_1 ) (* 1 s_0 ) (* 1 s_2 x ) ) 0) ) (>= (+ (* 1 M c_4 ) (* 1 c_3 ) (* 1 c_5 x ) ) 0) )))
(assert (forall ((x Real) (M Real) ) (=> (and (>= (+ (* (- 1) 1) (* 1 M ) ) 0) (>= (+ (* 1024 1) (* 1 x ) ) 0) (>= (+ (* 1024 1) (* 1 M ) ) 0) (>= (+ (* 1023 1) (* (- 1) M ) ) 0) (>= (+ (* 1023 1) (* (- 1) x ) ) 0) (>= (+ (* 1 M s_1 ) (* 1 s_0 ) (* 1 s_2 x ) ) 0) ) (>= (+ (* (- 1) 1) (* 1 M c_1 ) (* (- 1) M c_4 ) (* 1 c_0 ) (* 1 c_2 x ) (* (- 1) c_3 ) (* (- 1) c_5 x ) ) 0) )))
(assert (forall ((x Real) (M Real) ) (=> (and (>= (* (- 1) M ) 0) (>= (+ (* 1024 1) (* 1 x ) ) 0) (>= (+ (* 1024 1) (* 1 M ) ) 0) (>= (+ (* 1023 1) (* (- 1) M ) ) 0) (>= (+ (* 1023 1) (* (- 1) x ) ) 0) (>= (+ (* 1 M s_1 ) (* 1 s_0 ) (* 1 s_2 x ) ) 0) ) (>= (+ (* 1 M s_7 ) (* 1 s_6 ) (* 1 s_8 x ) ) 0) )))
(assert (forall ((x Real) (M Real) ) (=> (and (>= (* (- 1) M ) 0) (>= (+ (* 1024 1) (* 1 x ) ) 0) (>= (+ (* 1024 1) (* 1 M ) ) 0) (>= (+ (* 1023 1) (* (- 1) M ) ) 0) (>= (+ (* 1023 1) (* (- 1) x ) ) 0) (>= (+ (* 1 M s_1 ) (* 1 s_0 ) (* 1 s_2 x ) ) 0) ) (>= (+ (* 1 M c_7 ) (* 1 c_6 ) (* 1 c_8 x ) ) 0) )))
(assert (forall ((x Real) (M Real) ) (=> (and (>= (+ (* (- 1) 1) (* (- 1) M ) (* 1 x ) ) 0) (>= (+ (* (- 1) 1) (* 1 M ) (* (- 1) x ) ) 0) (>= (+ (* (- 1) 1) (* 1 M ) ) 0) (>= (+ (* 1024 1) (* 1 x ) ) 0) (>= (+ (* 1023 1) (* (- 1) M ) ) 0) (>= (+ (* 1 M s_4 ) (* 1 s_3 ) (* 1 s_5 x ) ) 0) ) (>= (+ (* 1 M s_4 ) (* 1 s_3 ) ) 0) )))
(assert (forall ((x Real) (M Real) ) (=> (and (>= (+ (* (- 1) 1) (* (- 1) M ) (* 1 x ) ) 0) (>= (+ (* (- 1) 1) (* 1 M ) (* (- 1) x ) ) 0) (>= (+ (* (- 1) 1) (* 1 M ) ) 0) (>= (+ (* 1024 1) (* 1 x ) ) 0) (>= (+ (* 1023 1) (* (- 1) M ) ) 0) (>= (+ (* 1 M s_4 ) (* 1 s_3 ) (* 1 s_5 x ) ) 0) ) (>= (+ (* 1 M c_4 ) (* 1 c_3 ) ) 0) )))
(assert (forall ((x Real) (M Real) ) (=> (and (>= (+ (* (- 1) 1) (* (- 1) M ) (* 1 x ) ) 0) (>= (+ (* (- 1) 1) (* 1 M ) (* (- 1) x ) ) 0) (>= (+ (* (- 1) 1) (* 1 M ) ) 0) (>= (+ (* 1024 1) (* 1 x ) ) 0) (>= (+ (* 1023 1) (* (- 1) M ) ) 0) (>= (+ (* 1 M s_4 ) (* 1 s_3 ) (* 1 s_5 x ) ) 0) ) (>= (+ (* (- 1) 1) (* 1 c_5 x ) ) 0) )))
(assert (forall ((x Real) (M Real) ) (=> (and (>= (+ (* 1 M ) (* (- 1) x ) ) 0) (>= (+ (* (- 1) 1) (* 1 M ) (* (- 1) x ) ) 0) (>= (+ (* (- 1) 1) (* 1 M ) ) 0) (>= (+ (* 1024 1) (* 1 x ) ) 0) (>= (+ (* 1023 1) (* (- 1) M ) ) 0) (>= (+ (* 1 M s_4 ) (* 1 s_3 ) (* 1 s_5 x ) ) 0) ) (>= (+ (* 1 M s_4 ) (* 1 s_3 ) (* 1 s_5 ) (* 1 s_5 x ) ) 0) )))
(assert (forall ((x Real) (M Real) ) (=> (and (>= (+ (* 1 M ) (* (- 1) x ) ) 0) (>= (+ (* (- 1) 1) (* 1 M ) (* (- 1) x ) ) 0) (>= (+ (* (- 1) 1) (* 1 M ) ) 0) (>= (+ (* 1024 1) (* 1 x ) ) 0) (>= (+ (* 1023 1) (* (- 1) M ) ) 0) (>= (+ (* 1 M s_4 ) (* 1 s_3 ) (* 1 s_5 x ) ) 0) ) (>= (+ (* 1 M c_4 ) (* 1 c_3 ) (* 1 c_5 ) (* 1 c_5 x ) ) 0) )))
(assert (forall ((x Real) (M Real) ) (=> (and (>= (+ (* 1 M ) (* (- 1) x ) ) 0) (>= (+ (* (- 1) 1) (* 1 M ) (* (- 1) x ) ) 0) (>= (+ (* (- 1) 1) (* 1 M ) ) 0) (>= (+ (* 1024 1) (* 1 x ) ) 0) (>= (+ (* 1023 1) (* (- 1) M ) ) 0) (>= (+ (* 1 M s_4 ) (* 1 s_3 ) (* 1 s_5 x ) ) 0) ) (>= (+ (* (- 1) 1) (* (- 1) c_5 ) ) 0) )))
(assert (forall ((x Real) (M Real) ) (=> (and (>= (+ (* (- 1) 1) (* (- 1) M ) (* 1 x ) ) 0) (>= (+ (* (- 1) 1) (* 1 M ) ) 0) (>= (+ (* 1024 1) (* 1 x ) ) 0) (>= (+ (* 1023 1) (* (- 1) M ) ) 0) (>= (+ (* 1 M s_4 ) (* 1 s_3 ) (* 1 s_5 x ) ) 0) ) (>= (+ (* 1 M s_4 ) (* 1 s_3 ) ) 0) )))
(assert (forall ((x Real) (M Real) ) (=> (and (>= (+ (* (- 1) 1) (* (- 1) M ) (* 1 x ) ) 0) (>= (+ (* (- 1) 1) (* 1 M ) ) 0) (>= (+ (* 1024 1) (* 1 x ) ) 0) (>= (+ (* 1023 1) (* (- 1) M ) ) 0) (>= (+ (* 1 M s_4 ) (* 1 s_3 ) (* 1 s_5 x ) ) 0) ) (>= (+ (* 1 M c_4 ) (* 1 c_3 ) ) 0) )))
(assert (forall ((x Real) (M Real) ) (=> (and (>= (+ (* (- 1) 1) (* (- 1) M ) (* 1 x ) ) 0) (>= (+ (* (- 1) 1) (* 1 M ) ) 0) (>= (+ (* 1024 1) (* 1 x ) ) 0) (>= (+ (* 1023 1) (* (- 1) M ) ) 0) (>= (+ (* 1 M s_4 ) (* 1 s_3 ) (* 1 s_5 x ) ) 0) ) (>= (+ (* (- 1) 1) (* 1 c_5 x ) ) 0) )))
(assert (forall ((x Real) (M Real) ) (=> (and (>= (+ (* 1 M ) (* (- 1) x ) ) 0) (>= (+ (* (- 1) 1) (* (- 1) M ) (* 1 x ) ) 0) (>= (+ (* (- 1) 1) (* 1 M ) ) 0) (>= (+ (* 1024 1) (* 1 x ) ) 0) (>= (+ (* 1023 1) (* (- 1) M ) ) 0) (>= (+ (* 1 M s_4 ) (* 1 s_3 ) (* 1 s_5 x ) ) 0) ) (>= (+ (* 1 M s_4 ) (* 1 s_3 ) (* 1 s_5 ) (* 1 s_5 x ) ) 0) )))
(assert (forall ((x Real) (M Real) ) (=> (and (>= (+ (* 1 M ) (* (- 1) x ) ) 0) (>= (+ (* (- 1) 1) (* (- 1) M ) (* 1 x ) ) 0) (>= (+ (* (- 1) 1) (* 1 M ) ) 0) (>= (+ (* 1024 1) (* 1 x ) ) 0) (>= (+ (* 1023 1) (* (- 1) M ) ) 0) (>= (+ (* 1 M s_4 ) (* 1 s_3 ) (* 1 s_5 x ) ) 0) ) (>= (+ (* 1 M c_4 ) (* 1 c_3 ) (* 1 c_5 ) (* 1 c_5 x ) ) 0) )))
(assert (forall ((x Real) (M Real) ) (=> (and (>= (+ (* 1 M ) (* (- 1) x ) ) 0) (>= (+ (* (- 1) 1) (* (- 1) M ) (* 1 x ) ) 0) (>= (+ (* (- 1) 1) (* 1 M ) ) 0) (>= (+ (* 1024 1) (* 1 x ) ) 0) (>= (+ (* 1023 1) (* (- 1) M ) ) 0) (>= (+ (* 1 M s_4 ) (* 1 s_3 ) (* 1 s_5 x ) ) 0) ) (>= (+ (* (- 1) 1) (* (- 1) c_5 ) ) 0) )))
(assert (forall ((x Real) (M Real) ) (=> (and (>= (+ (* (- 1) M ) (* 1 x ) ) 0) (>= (+ (* 1 M ) (* (- 1) x ) ) 0) (>= (+ (* (- 1) 1) (* 1 M ) ) 0) (>= (+ (* 1024 1) (* 1 x ) ) 0) (>= (+ (* 1023 1) (* (- 1) M ) ) 0) (>= (+ (* 1 M s_4 ) (* 1 s_3 ) (* 1 s_5 x ) ) 0) ) (>= (+ (* 1 M s_7 ) (* 1 s_6 ) (* 1 s_8 x ) ) 0) )))
(assert (forall ((x Real) (M Real) ) (=> (and (>= (+ (* (- 1) M ) (* 1 x ) ) 0) (>= (+ (* 1 M ) (* (- 1) x ) ) 0) (>= (+ (* (- 1) 1) (* 1 M ) ) 0) (>= (+ (* 1024 1) (* 1 x ) ) 0) (>= (+ (* 1023 1) (* (- 1) M ) ) 0) (>= (+ (* 1 M s_4 ) (* 1 s_3 ) (* 1 s_5 x ) ) 0) ) (>= (+ (* 1 M c_7 ) (* 1 c_6 ) (* 1 c_8 x ) ) 0) )))

(check-sat)
(get-model)
